
(set-logic HORN)
(declare-fun zero_106 () Int)
(declare-fun succ_104 (Int) Int)
(declare-fun diseqInt (Int Int) Bool)
(declare-fun p_298 (Int Int) Bool)
(declare-fun iszero_104 (Int) Bool)
(declare-fun issucc_104 (Int) Bool)
(assert (forall ((x_46887 Int))
	(p_298 x_46887 (succ_104 x_46887))))
(assert (iszero_104 zero_106))
(assert (forall ((x_46889 Int))
	(issucc_104 (succ_104 x_46889))))
(assert (forall ((x_46890 Int))
	(diseqInt zero_106 (succ_104 x_46890))))
(assert (forall ((x_46891 Int))
	(diseqInt (succ_104 x_46891) zero_106)))
(assert (forall ((x_46892 Int) (x_46893 Int))
	(=> (diseqInt x_46892 x_46893) (diseqInt (succ_104 x_46892) (succ_104 x_46893)))))
(declare-datatypes ((Integer_8 0)) (((P_297 (projP_16 Int)) (N_87 (projN_16 Int)))))
(declare-fun diseqInteger_8 (Integer_8 Integer_8) Bool)
(declare-fun projP_17 (Int Integer_8) Bool)
(declare-fun projN_17 (Int Integer_8) Bool)
(declare-fun isP_10 (Integer_8) Bool)
(declare-fun isN_8 (Integer_8) Bool)
(assert (forall ((x_46894 Int))
	(projP_17 x_46894 (P_297 x_46894))))
(assert (forall ((x_46896 Int))
	(projN_17 x_46896 (N_87 x_46896))))
(assert (forall ((x_46898 Int))
	(isP_10 (P_297 x_46898))))
(assert (forall ((x_46899 Int))
	(isN_8 (N_87 x_46899))))
(assert (forall ((x_46900 Int) (x_46901 Int))
	(diseqInteger_8 (P_297 x_46900) (N_87 x_46901))))
(assert (forall ((x_46902 Int) (x_46903 Int))
	(diseqInteger_8 (N_87 x_46902) (P_297 x_46903))))
(assert (forall ((x_46904 Int) (x_46905 Int))
	(=> (diseqInt x_46904 x_46905) (diseqInteger_8 (P_297 x_46904) (P_297 x_46905)))))
(assert (forall ((x_46906 Int) (x_46907 Int))
	(=> (diseqInt x_46906 x_46907) (diseqInteger_8 (N_87 x_46906) (N_87 x_46907)))))
(declare-fun zero_107 (Integer_8) Bool)
(assert (zero_107 (P_297 zero_106)))
(declare-fun plus_104 (Int Int Int) Bool)
(assert (forall ((x_46850 Int) (z_1524 Int) (y_1690 Int))
	(=> (plus_104 x_46850 z_1524 y_1690) (plus_104 (succ_104 x_46850) (succ_104 z_1524) y_1690))))
(assert (forall ((x_46851 Int))
	(plus_104 x_46851 zero_106 x_46851)))
(declare-fun x_46837 (Integer_8 Int Int) Bool)
(assert (forall ((x_46839 Int) (z_1525 Int) (fail_25 Integer_8))
	(=> (x_46837 fail_25 x_46839 z_1525) (x_46837 fail_25 (succ_104 x_46839) (succ_104 z_1525)))))
(assert (forall ((x_46841 Int))
	(x_46837 (N_87 (succ_104 x_46841)) zero_106 (succ_104 x_46841))))
(assert (forall ((x_46840 Int))
	(x_46837 (P_297 (succ_104 x_46840)) (succ_104 x_46840) zero_106)))
(assert (x_46837 (P_297 zero_106) zero_106 zero_106))
(declare-fun plus_105 (Integer_8 Integer_8 Integer_8) Bool)
(assert (forall ((x_46865 Int) (x_46866 Int) (n_88 Int) (m_33 Int))
	(=> (and (plus_104 x_46865 (succ_104 zero_106) m_33) (plus_104 x_46866 x_46865 n_88)) (plus_105 (N_87 x_46866) (N_87 m_33) (N_87 n_88)))))
(assert (forall ((x_46867 Integer_8) (x_46868 Int) (n_89 Int) (m_33 Int))
	(=> (and (plus_104 x_46868 (succ_104 zero_106) m_33) (x_46837 x_46867 n_89 x_46868)) (plus_105 x_46867 (N_87 m_33) (P_297 n_89)))))
(assert (forall ((x_46870 Integer_8) (x_46871 Int) (o_5 Int) (m_34 Int))
	(=> (and (plus_104 x_46871 (succ_104 zero_106) o_5) (x_46837 x_46870 m_34 x_46871)) (plus_105 x_46870 (P_297 m_34) (N_87 o_5)))))
(assert (forall ((x_46874 Int) (n_90 Int) (m_34 Int))
	(=> (plus_104 x_46874 m_34 n_90) (plus_105 (P_297 x_46874) (P_297 m_34) (P_297 n_90)))))
(assert (forall ((x_46875 Integer_8) (x_46876 Integer_8) (x_46843 Integer_8))
	(=> (and true (diseqInteger_8 x_46843 x_46876) (zero_107 x_46875) (plus_105 x_46876 x_46843 x_46875)) false)))
(assert (forall ((x_46877 Int) (x_46878 Int) (x_46879 Int) (x_46880 Int) (x_46844 Int) (y_1693 Int) (z_1526 Int))
	(=> (and true (diseqInt x_46878 x_46880) (plus_104 x_46877 y_1693 z_1526) (plus_104 x_46878 x_46844 x_46877) (plus_104 x_46879 x_46844 y_1693) (plus_104 x_46880 x_46879 z_1526)) false)))
(assert (forall ((x_46881 Int) (x_46882 Int) (x_46845 Int) (y_1694 Int))
	(=> (and true (diseqInt x_46881 x_46882) (plus_104 x_46881 x_46845 y_1694) (plus_104 x_46882 y_1694 x_46845)) false)))
(assert (forall ((x_46883 Int) (x_46846 Int))
	(=> (and true (diseqInt x_46883 x_46846) (plus_104 x_46883 x_46846 zero_106)) false)))
(assert (forall ((x_46884 Int) (x_46847 Int))
	(=> (and true (diseqInt x_46884 x_46847) (plus_104 x_46884 zero_106 x_46847)) false)))
(check-sat)
